Route #1: 1 5 21 22 20 63 65 43 46 24 30 17 1 
Route #2: 1 89 87 85 94 93 99 2 8 7 4 1 
Route #3: 1 1 9 11 12 14 16 18 13 28 26 23 47 1 
Route #4: 1 3 6 10 29 25 75 91 86 82 97 100 1 
Route #5: 1 98 96 92 84 83 90 62 72 61 64 59 40 41 68 69 66 1 
Route #6: 1 15 38 33 31 51 57 50 27 1 
Route #7: 1 88 81 78 76 71 70 73 77 79 80 42 1 
Route #8: 1 19 36 37 35 32 52 49 48 45 44 55 74 67 1 
Route #9: 1 95 53 56 58 60 39 34 1 
Route #10: 1 54 1 

Cost 1605.15
Time 2.1767


 * Another infos *

 Iterations: 101 Time: 2.1767 sec - 0.0363 min - 0.0006 horas
0.0000 h 0.0363 min
Problem dimension: 101
